variable	dt equal 1.0
variable	temp equal 298.3
variable	rc equal 10.0
variable	lambdas string "0.0 0.25 0.5 0.75 1.0"
variable	weights string "0.0 0.0 0.0 0.0 0.0"

units           real
atom_style      full

bond_style      harmonic
angle_style     harmonic
kspace_style    pppm 0.0001
pair_style      lj/cut/coul/long/stewie ${rc} ${rc} ${temp} ${lambdas} ${weights}

read_data       water.lmp
pair_modify	mix arithmetic


variable	tdamp equal 100*${dt}
fix             1 all nvt temp ${temp} ${temp} ${tdamp}
velocity        all create ${temp} 87287
timestep        ${dt}

neighbor        2.0 bin
neigh_modify    delay 0 every 1 check yes

thermo_style    custom step temp evdwl etail emol elong ecoul pe
thermo_modify	norm no
thermo          100
run             300

